
(set-logic BV)

(define-fun shr1 ((x (BitVec 64))) (BitVec 64) (bvlshr x #x0000000000000001))
(define-fun shr4 ((x (BitVec 64))) (BitVec 64) (bvlshr x #x0000000000000004))
(define-fun shr16 ((x (BitVec 64))) (BitVec 64) (bvlshr x #x0000000000000010))
(define-fun shl1 ((x (BitVec 64))) (BitVec 64) (bvshl x #x0000000000000001))
(define-fun if0 ((x (BitVec 64)) (y (BitVec 64)) (z (BitVec 64))) (BitVec 64) (ite (= x #x0000000000000001) y z))

(synth-fun f ( (x (BitVec 64))) (BitVec 64)
(

(Start (BitVec 64) (#x0000000000000000 #x0000000000000001 x (bvnot Start)
                    (shl1 Start)
 		    (shr1 Start)
		    (shr4 Start)
		    (shr16 Start)
		    (bvand Start Start)
		    (bvor Start Start)
		    (bvxor Start Start)
		    (bvadd Start Start)
		    (if0 Start Start Start)
 ))
)
)


(constraint (= (f #xdc07568507beda16) #xb80ead0a0f7db42c))
(constraint (= (f #x19481d0200571ab7) #x0000000000000001))
(constraint (= (f #xdce951283ae95ed9) #xb9d2a25075d2bdb2))
(constraint (= (f #xa61dbe03dab5b6d2) #x4c3b7c07b56b6da4))
(constraint (= (f #xbad6165b60a89e61) #xbad6165b60a89e61))
(constraint (= (f #x180c94216ce407a8) #x180c94216ce407a8))
(constraint (= (f #xcca3e151b99be015) #x9947c2a37337c02a))
(constraint (= (f #x2232cac3248c6499) #x446595864918c932))
(constraint (= (f #xe37bb395c6a89120) #xe37bb395c6a89120))
(constraint (= (f #x8ac6c70581e4deeb) #x8ac6c70581e4deeb))
(check-synth)
